(set-logic QF_UF)
(declare-fun A0 () Bool)
(declare-fun A1 () Bool)
(declare-fun A2 () Bool)
(declare-fun A3 () Bool)
(declare-fun A4 () Bool)
(declare-fun A5 () Bool)
(declare-fun A6 () Bool)
(declare-fun A7 () Bool)
(declare-fun A8 () Bool)
(declare-fun A9 () Bool)
(declare-fun A10 () Bool)
(declare-fun A11 () Bool)
(declare-fun A12 () Bool)
(declare-fun A13 () Bool)
(declare-fun A14 () Bool)
(declare-fun A15 () Bool)
(declare-fun A16 () Bool)
(declare-fun A17 () Bool)
(declare-fun A18 () Bool)
(declare-fun A19 () Bool)
(declare-fun A20 () Bool)
(declare-fun A21 () Bool)
(declare-fun A22 () Bool)
(declare-fun A23 () Bool)
(declare-fun A24 () Bool)
(assert (let ((.def_0 (= A2 A11))) (let ((.def_1 (not A7))) (let ((.def_2 (or .def_1 A2))) (let ((.def_3 (not .def_2))) (let ((.def_4 (and .def_3 .def_0))) (let ((.def_5 (not .def_4))) (let ((.def_6 (and A16 A1))) (let ((.def_7 (not A18))) (let ((.def_8 (or A18 .def_7))) (let ((.def_9 (not .def_8))) (let ((.def_10 (or .def_9 .def_6))) (let ((.def_11 (and .def_10 .def_5))) (let ((.def_12 (not .def_11))) (let ((.def_13 (not A14))) (let ((.def_14 (and .def_13 A3))) (let ((.def_15 (not .def_14))) (let ((.def_16 (not A17))) (let ((.def_17 (not A0))) (let ((.def_18 (and .def_17 .def_16))) (let ((.def_19 (not .def_18))) (let ((.def_20 (or .def_19 .def_15))) (let ((.def_21 (not A16))) (let ((.def_22 (and .def_7 .def_21))) (let ((.def_23 (not .def_22))) (let ((.def_24 (or A6 A3))) (let ((.def_25 (not .def_24))) (let ((.def_26 (and .def_25 .def_23))) (let ((.def_27 (not .def_26))) (let ((.def_28 (and .def_27 .def_20))) (let ((.def_29 (not .def_28))) (let ((.def_30 (and .def_29 .def_12))) (let ((.def_31 (not .def_30))) (let ((.def_32 (not A11))) (let ((.def_33 (not A3))) (let ((.def_34 (and .def_33 .def_32))) (let ((.def_35 (not .def_34))) (let ((.def_36 (and A2 A18))) (let ((.def_37 (and .def_36 .def_35))) (let ((.def_38 (not .def_37))) (let ((.def_39 (and .def_16 A24))) (let ((.def_40 (not A23))) (let ((.def_41 (and .def_1 .def_40))) (let ((.def_42 (or .def_41 .def_39))) (let ((.def_43 (or .def_42 .def_38))) (let ((.def_44 (not .def_43))) (let ((.def_45 (and A5 A12))) (let ((.def_46 (not A6))) (let ((.def_47 (and A18 .def_46))) (let ((.def_48 (and .def_47 .def_45))) (let ((.def_49 (not .def_48))) (let ((.def_50 (not A19))) (let ((.def_51 (or .def_50 A24))) (let ((.def_52 (not A21))) (let ((.def_53 (or .def_52 .def_33))) (let ((.def_54 (and .def_53 .def_51))) (let ((.def_55 (or .def_54 .def_49))) (let ((.def_56 (or .def_55 .def_44))) (let ((.def_57 (and .def_56 .def_31))) (let ((.def_58 (not .def_57))) (let ((.def_59 (not A2))) (let ((.def_60 (= A6 .def_59))) (let ((.def_61 (= A18 .def_33))) (let ((.def_62 (or .def_61 .def_60))) (let ((.def_63 (not A1))) (let ((.def_64 (or .def_63 A23))) (let ((.def_65 (not .def_64))) (let ((.def_66 (not A12))) (let ((.def_67 (or .def_16 .def_66))) (let ((.def_68 (or .def_67 .def_65))) (let ((.def_69 (not .def_68))) (let ((.def_70 (or .def_69 .def_62))) (let ((.def_71 (not .def_70))) (let ((.def_72 (= A19 A17))) (let ((.def_73 (not A4))) (let ((.def_74 (or .def_46 .def_73))) (let ((.def_75 (not .def_74))) (let ((.def_76 (or .def_75 .def_72))) (let ((.def_77 (or A7 A1))) (let ((.def_78 (or A7 .def_63))) (let ((.def_79 (not .def_78))) (let ((.def_80 (and .def_79 .def_77))) (let ((.def_81 (not .def_80))) (let ((.def_82 (and .def_81 .def_76))) (let ((.def_83 (not .def_82))) (let ((.def_84 (and .def_83 .def_71))) (let ((.def_85 (or .def_66 .def_16))) (let ((.def_86 (and A10 .def_16))) (let ((.def_87 (not .def_86))) (let ((.def_88 (or .def_87 .def_85))) (let ((.def_89 (or A23 A0))) (let ((.def_90 (not A10))) (let ((.def_91 (or A23 .def_90))) (let ((.def_92 (or .def_91 .def_89))) (let ((.def_93 (and .def_92 .def_88))) (let ((.def_94 (not .def_93))) (let ((.def_95 (and A10 A9))) (let ((.def_96 (or A13 A11))) (let ((.def_97 (not .def_96))) (let ((.def_98 (or .def_97 .def_95))) (let ((.def_99 (or .def_13 .def_59))) (let ((.def_100 (not A15))) (let ((.def_101 (and A2 .def_100))) (let ((.def_102 (and .def_101 .def_99))) (let ((.def_103 (not .def_102))) (let ((.def_104 (or .def_103 .def_98))) (let ((.def_105 (or .def_104 .def_94))) (let ((.def_106 (= .def_105 .def_84))) (let ((.def_107 (not .def_106))) (let ((.def_108 (and .def_107 .def_58))) (let ((.def_109 (not .def_108))) (let ((.def_110 (or A19 .def_59))) (let ((.def_111 (not .def_110))) (let ((.def_112 (or .def_66 A16))) (let ((.def_113 (not .def_112))) (let ((.def_114 (and .def_113 .def_111))) (let ((.def_115 (not .def_114))) (let ((.def_116 (or .def_73 .def_33))) (let ((.def_117 (or A19 A3))) (let ((.def_118 (not .def_117))) (let ((.def_119 (and .def_118 .def_116))) (let ((.def_120 (and .def_119 .def_115))) (let ((.def_121 (not .def_120))) (let ((.def_122 (not A5))) (let ((.def_123 (or .def_122 A23))) (let ((.def_124 (not .def_123))) (let ((.def_125 (and A23 .def_59))) (let ((.def_126 (not .def_125))) (let ((.def_127 (or .def_126 .def_124))) (let ((.def_128 (not .def_127))) (let ((.def_129 (not A13))) (let ((.def_130 (or .def_129 .def_129))) (let ((.def_131 (not .def_130))) (let ((.def_132 (and A22 .def_73))) (let ((.def_133 (not .def_132))) (let ((.def_134 (and .def_133 .def_131))) (let ((.def_135 (not .def_134))) (let ((.def_136 (and .def_135 .def_128))) (let ((.def_137 (not .def_136))) (let ((.def_138 (or .def_137 .def_121))) (let ((.def_139 (not A22))) (let ((.def_140 (= A13 .def_139))) (let ((.def_141 (not .def_140))) (let ((.def_142 (not A9))) (let ((.def_143 (or .def_16 .def_142))) (let ((.def_144 (not .def_143))) (let ((.def_145 (or .def_144 .def_141))) (let ((.def_146 (or .def_40 A2))) (let ((.def_147 (not .def_146))) (let ((.def_148 (not A20))) (let ((.def_149 (or .def_148 .def_33))) (let ((.def_150 (not .def_149))) (let ((.def_151 (or .def_150 .def_147))) (let ((.def_152 (or .def_151 .def_145))) (let ((.def_153 (or .def_122 A24))) (let ((.def_154 (not .def_153))) (let ((.def_155 (and A13 .def_46))) (let ((.def_156 (not .def_155))) (let ((.def_157 (or .def_156 .def_154))) (let ((.def_158 (not .def_157))) (let ((.def_159 (not A8))) (let ((.def_160 (or .def_40 .def_159))) (let ((.def_161 (not .def_160))) (let ((.def_162 (or .def_32 A6))) (let ((.def_163 (not .def_162))) (let ((.def_164 (and .def_163 .def_161))) (let ((.def_165 (not .def_164))) (let ((.def_166 (and .def_165 .def_158))) (let ((.def_167 (or .def_166 .def_152))) (let ((.def_168 (= .def_167 .def_138))) (let ((.def_169 (or A1 .def_129))) (let ((.def_170 (not .def_169))) (let ((.def_171 (and A15 .def_139))) (let ((.def_172 (not .def_171))) (let ((.def_173 (or .def_172 .def_170))) (let ((.def_174 (and A7 .def_1))) (let ((.def_175 (or .def_17 .def_159))) (let ((.def_176 (not .def_175))) (let ((.def_177 (or .def_176 .def_174))) (let ((.def_178 (not .def_177))) (let ((.def_179 (or .def_178 .def_173))) (let ((.def_180 (or .def_148 .def_40))) (let ((.def_181 (not .def_180))) (let ((.def_182 (= A22 A11))) (let ((.def_183 (and .def_182 .def_181))) (let ((.def_184 (not .def_183))) (let ((.def_185 (= .def_100 A23))) (let ((.def_186 (and A22 .def_33))) (let ((.def_187 (and .def_186 .def_185))) (let ((.def_188 (or .def_187 .def_184))) (let ((.def_189 (not .def_188))) (let ((.def_190 (and .def_189 .def_179))) (let ((.def_191 (= .def_66 A15))) (let ((.def_192 (and A17 A17))) (let ((.def_193 (and .def_192 .def_191))) (let ((.def_194 (not .def_193))) (let ((.def_195 (and A17 A19))) (let ((.def_196 (not .def_195))) (let ((.def_197 (and .def_122 .def_139))) (let ((.def_198 (not .def_197))) (let ((.def_199 (or .def_198 .def_196))) (let ((.def_200 (or .def_199 .def_194))) (let ((.def_201 (and A11 A17))) (let ((.def_202 (and .def_159 A2))) (let ((.def_203 (not .def_202))) (let ((.def_204 (or .def_203 .def_201))) (let ((.def_205 (and .def_46 A15))) (let ((.def_206 (not .def_205))) (let ((.def_207 (and .def_13 A19))) (let ((.def_208 (or .def_207 .def_206))) (let ((.def_209 (or .def_208 .def_204))) (let ((.def_210 (and .def_209 .def_200))) (let ((.def_211 (and .def_210 .def_190))) (let ((.def_212 (not .def_211))) (let ((.def_213 (or .def_212 .def_168))) (let ((.def_214 (and .def_213 .def_109))) (let ((.def_215 (and .def_33 .def_90))) (let ((.def_216 (not .def_215))) (let ((.def_217 (or A1 A7))) (let ((.def_218 (and .def_217 .def_216))) (let ((.def_219 (and A4 A2))) (let ((.def_220 (or A16 A5))) (let ((.def_221 (not .def_220))) (let ((.def_222 (or .def_221 .def_219))) (let ((.def_223 (not .def_222))) (let ((.def_224 (or .def_223 .def_218))) (let ((.def_225 (and A19 A21))) (let ((.def_226 (or A8 A12))) (let ((.def_227 (or .def_226 .def_225))) (let ((.def_228 (not .def_227))) (let ((.def_229 (and A22 .def_16))) (let ((.def_230 (or .def_66 A24))) (let ((.def_231 (and .def_230 .def_229))) (let ((.def_232 (and .def_231 .def_228))) (let ((.def_233 (and .def_232 .def_224))) (let ((.def_234 (not .def_233))) (let ((.def_235 (= .def_100 .def_32))) (let ((.def_236 (or .def_59 A18))) (let ((.def_237 (or .def_236 .def_235))) (let ((.def_238 (not .def_237))) (let ((.def_239 (= A18 A6))) (let ((.def_240 (or .def_33 .def_129))) (let ((.def_241 (or .def_240 .def_239))) (let ((.def_242 (or .def_241 .def_238))) (let ((.def_243 (not .def_242))) (let ((.def_244 (or .def_63 A20))) (let ((.def_245 (= .def_142 A2))) (let ((.def_246 (and .def_245 .def_244))) (let ((.def_247 (or .def_142 A18))) (let ((.def_248 (and .def_66 .def_21))) (let ((.def_249 (and .def_248 .def_247))) (let ((.def_250 (not .def_249))) (let ((.def_251 (and .def_250 .def_246))) (let ((.def_252 (or .def_251 .def_243))) (let ((.def_253 (and .def_252 .def_234))) (let ((.def_254 (or A1 A15))) (let ((.def_255 (and A16 A0))) (let ((.def_256 (or .def_255 .def_254))) (let ((.def_257 (not .def_256))) (let ((.def_258 (and A10 A5))) (let ((.def_259 (and .def_66 .def_17))) (let ((.def_260 (not .def_259))) (let ((.def_261 (and .def_260 .def_258))) (let ((.def_262 (not .def_261))) (let ((.def_263 (or .def_262 .def_257))) (let ((.def_264 (and .def_1 A13))) (let ((.def_265 (or A2 A11))) (let ((.def_266 (= .def_265 .def_264))) (let ((.def_267 (and .def_73 A21))) (let ((.def_268 (and .def_66 A16))) (let ((.def_269 (and .def_268 .def_267))) (let ((.def_270 (= .def_269 .def_266))) (let ((.def_271 (not .def_270))) (let ((.def_272 (or .def_271 .def_263))) (let ((.def_273 (not .def_272))) (let ((.def_274 (or A0 A9))) (let ((.def_275 (and A16 .def_90))) (let ((.def_276 (not .def_275))) (let ((.def_277 (= .def_276 .def_274))) (let ((.def_278 (not .def_277))) (let ((.def_279 (and .def_142 .def_159))) (let ((.def_280 (or .def_254 .def_279))) (let ((.def_281 (or .def_280 .def_278))) (let ((.def_282 (not .def_281))) (let ((.def_283 (or A0 A10))) (let ((.def_284 (not .def_283))) (let ((.def_285 (or .def_52 A19))) (let ((.def_286 (and .def_285 .def_284))) (let ((.def_287 (not .def_286))) (let ((.def_288 (or A14 .def_142))) (let ((.def_289 (not .def_288))) (let ((.def_290 (or .def_139 A10))) (let ((.def_291 (not .def_290))) (let ((.def_292 (= .def_291 .def_289))) (let ((.def_293 (= .def_292 .def_287))) (let ((.def_294 (not .def_293))) (let ((.def_295 (and .def_294 .def_282))) (let ((.def_296 (not .def_295))) (let ((.def_297 (or .def_296 .def_273))) (let ((.def_298 (or .def_297 .def_253))) (let ((.def_299 (not .def_298))) (let ((.def_300 (not .def_230))) (let ((.def_301 (or A7 .def_50))) (let ((.def_302 (or .def_301 .def_300))) (let ((.def_303 (and .def_90 A9))) (let ((.def_304 (and A24 A8))) (let ((.def_305 (or .def_304 .def_303))) (let ((.def_306 (not .def_305))) (let ((.def_307 (and .def_306 .def_302))) (let ((.def_308 (or A16 A8))) (let ((.def_309 (not .def_308))) (let ((.def_310 (and A7 A2))) (let ((.def_311 (and .def_310 .def_309))) (let ((.def_312 (or .def_50 A16))) (let ((.def_313 (or A18 .def_142))) (let ((.def_314 (and .def_313 .def_312))) (let ((.def_315 (not .def_314))) (let ((.def_316 (and .def_315 .def_311))) (let ((.def_317 (and .def_316 .def_307))) (let ((.def_318 (not .def_317))) (let ((.def_319 (and A12 A11))) (let ((.def_320 (not .def_319))) (let ((.def_321 (or A5 A13))) (let ((.def_322 (or .def_321 .def_320))) (let ((.def_323 (= .def_7 .def_50))) (let ((.def_324 (not .def_323))) (let ((.def_325 (and A10 A10))) (let ((.def_326 (not .def_325))) (let ((.def_327 (or .def_326 .def_324))) (let ((.def_328 (or .def_327 .def_322))) (let ((.def_329 (and .def_50 A5))) (let ((.def_330 (or A23 .def_148))) (let ((.def_331 (or .def_330 .def_329))) (let ((.def_332 (not .def_331))) (let ((.def_333 (or A0 A23))) (let ((.def_334 (or .def_63 A2))) (let ((.def_335 (not .def_334))) (let ((.def_336 (or .def_335 .def_333))) (let ((.def_337 (not .def_336))) (let ((.def_338 (or .def_337 .def_332))) (let ((.def_339 (or .def_338 .def_328))) (let ((.def_340 (or .def_339 .def_318))) (let ((.def_341 (and A8 A5))) (let ((.def_342 (not .def_341))) (let ((.def_343 (or A15 .def_142))) (let ((.def_344 (not .def_343))) (let ((.def_345 (and .def_344 .def_342))) (let ((.def_346 (not .def_345))) (let ((.def_347 (or A23 A8))) (let ((.def_348 (not .def_347))) (let ((.def_349 (and .def_90 .def_90))) (let ((.def_350 (not .def_349))) (let ((.def_351 (or .def_350 .def_348))) (let ((.def_352 (not .def_351))) (let ((.def_353 (or .def_352 .def_346))) (let ((.def_354 (or A22 .def_142))) (let ((.def_355 (not .def_354))) (let ((.def_356 (or A18 A15))) (let ((.def_357 (or .def_356 .def_355))) (let ((.def_358 (not .def_357))) (let ((.def_359 (= .def_16 A7))) (let ((.def_360 (and A10 .def_46))) (let ((.def_361 (and .def_360 .def_359))) (let ((.def_362 (not .def_361))) (let ((.def_363 (and .def_362 .def_358))) (let ((.def_364 (not .def_363))) (let ((.def_365 (or .def_364 .def_353))) (let ((.def_366 (= .def_40 .def_139))) (let ((.def_367 (or A17 A5))) (let ((.def_368 (not .def_367))) (let ((.def_369 (and .def_368 .def_366))) (let ((.def_370 (not .def_369))) (let ((.def_371 (and .def_129 A5))) (let ((.def_372 (not .def_371))) (let ((.def_373 (and A10 A6))) (let ((.def_374 (not .def_373))) (let ((.def_375 (and .def_374 .def_372))) (let ((.def_376 (not .def_375))) (let ((.def_377 (and .def_376 .def_370))) (let ((.def_378 (not .def_377))) (let ((.def_379 (or .def_52 A8))) (let ((.def_380 (not .def_379))) (let ((.def_381 (or .def_59 A17))) (let ((.def_382 (not .def_381))) (let ((.def_383 (or .def_382 .def_380))) (let ((.def_384 (not A24))) (let ((.def_385 (= A7 .def_384))) (let ((.def_386 (or .def_59 .def_21))) (let ((.def_387 (or .def_386 .def_385))) (let ((.def_388 (and .def_387 .def_383))) (let ((.def_389 (not .def_388))) (let ((.def_390 (or .def_389 .def_378))) (let ((.def_391 (or .def_390 .def_365))) (let ((.def_392 (not .def_391))) (let ((.def_393 (and .def_392 .def_340))) (let ((.def_394 (not .def_393))) (let ((.def_395 (or .def_394 .def_299))) (let ((.def_396 (or .def_395 .def_214))) (let ((.def_397 (not .def_396))) .def_397)))))))))))))))))))))))))))))))))))))))))))))))))))))))))))))))))))))))))))))))))))))))))))))))))))))))))))))))))))))))))))))))))))))))))))))))))))))))))))))))))))))))))))))))))))))))))))))))))))))))))))))))))))))))))))))))))))))))))))))))))))))))))))))))))))))))))))))))))))))))))))))))))))))))))))))))))))))))))))))))))))))))))))))))))))))))))))))))))))))))))))))))))))))))))))))))))))))))))))))))
(check-sat)
